6,2	0,0	17,3	5,4	0,0	0,0	0,0	0,0	0,0	14,6
7,2	19,7	0,0	12,2	9,7	0,0	0,0	11,2	0,0	0,0
0,0	0,0	15,2	0,0	12,7	7,6	0,0	0,0	17,1	0,0
19,7	0,0	12,9	0,0	0,0	0,0	8,0	0,0	0,0	0,0
0,0	15,8	0,0	7,2	10,5	0,0	0,0	17,0	0,0	0,0
0,0	5,2	5,9	0,0	16,8	6,8	0,0	0,0	5,8	0,0
0,0	5,7	0,0	12,4	0,0	0,0	6,8	0,0	0,0	15,5
6,2	0,0	19,4	0,0	0,0	0,0	0,0	0,0	0,0	13,4
0,0	18,8	0,0	19,2	16,1	0,0	0,0	8,1	0,0	0,0
0,0	0,0	10,6	0,0	0,0	17,1	10,7	0,0	0,0	8,9
0,0	14,5	0,0	0,0	16,9	0,0	6,2	0,0	9,6	11,9
5,8	0,0	19,2	0,0	16,1	0,0	17,2	17,3	7,0	0,0
0,0	7,0	0,0	0,0	0,0	7,5	0,0	18,0	7,0	8,4
12,1	9,8	15,6	0,0	0,0	8,2	0,0	12,9	11,0	0,0
7,1	0,0	19,2	0,0	19,1	8,9	17,1	11,8	0,0	0,0
0,0	9,2	0,0	12,7	0,0	7,5	0,0	19,5	0,0	0,0
16,7	0,0	17,4	17,4	10,5	0,0	0,0	11,5	0,0	0,0
0,0	0,0	9,2	0,0	0,0	15,2	5,3	0,0	11,4	14,9
15,8	0,0	0,0	6,2	14,0	7,4	12,1	5,4	0,0	10,6
0,0	10,1	0,0	8,4	0,0	0,0	15,3	0,0	10,4	6,9
									
2,7	3,2	4,3	4,0	4,1	2,6	3,3	4,9	3,5	3,5
